CMD:
./solvers/bin/cadical --plain --no-reduce -t 1600 ./data/cnfs//kenflashp01/kenflashp01.44.cnf

c --- [ banner ] -------------------------------------------------------------
c 
c CaDiCaL SAT Solver
c Copyright (c) 2016-2024
c A. Biere, M. Fleury, N. Froleyks, K. Fazekas, F. Pollitt, T. Faller
c JKU Linz, University of Freiburg, TU Wien
c 
c Version 2.1.3 5296d3d2a9bf48c154ab2acb5e44625776d821bf
c g++ (Gentoo 12.3.1_p20230526 p2) 12.3.1 20230526 -Wall -Wextra -O3 -DNDEBUG
c Sat Aug 9 07:26:21 PDT 2025 Linux cedar2.int.cedar.computecanada.ca 5.14.0-362.24.2.el9_3.x86_64 x86_64
c 
c --- [ limit ] --------------------------------------------------------------
c 
c setting time limit to 1600 seconds real time (due to '-t 1600')
c 
c --- [ parsing input ] ------------------------------------------------------
c 
c reading DIMACS file from './data/cnfs//kenflashp01/kenflashp01.44.cnf'
c opening file to read './data/cnfs//kenflashp01/kenflashp01.44.cnf'
c found 'p cnf 58105 166647' header
c parsed 166647 clauses in 0.03 seconds process time
c 
c --- [ options ] ------------------------------------------------------------
c 
c   --compact=false                (different from default 'true')
c   --decompose=false              (different from default 'true')
c   --deduplicate=false            (different from default 'true')
c   --elim=false                   (different from default 'true')
c   --probe=false                  (different from default 'true')
c   --reduce=false                 (different from default 'true')
c   --subsume=false                (different from default 'true')
c   --ternary=false                (different from default 'true')
c   --transred=false               (different from default 'true')
c   --vivify=false                 (different from default 'true')
c 
c --- [ solving ] ------------------------------------------------------------
c 
c time measured in process time since initialization
c 
c  seconds  reductions  redundant  irredundant
c         MB    restarts       trail       variables
c          level   conflicts       glue         remaining
c 
c *  0.03 29  0 0   0    0    0  0% 0 165024 44381 76%
c {  0.04 30  0 0   0    0    0  0% 0 165024 44381 76%
c i  0.04 30 27 0   0    2    1 30% 0 165024 44380 76%
c i  0.04 30 64 0   0   29   26 31% 3 165024 44365 76%
c i  0.04 30 54 0   0   68   63 31% 3 165024 44364 76%
c i  0.04 30 71 0   0   93   86 32% 2 165024 44363 76%
c i  0.04 30 88 0   0  118  109 33% 2 165024 44362 76%
c i  0.04 30 105 0   0  143  132 34% 2 165024 44361 76%
c i  0.04 30 121 0   0  168  155 35% 2 165024 44360 76%
c i  0.04 30 138 0   0  193  178 36% 2 165024 44359 76%
c i  0.04 30 154 0   0  218  201 36% 2 165024 44358 76%
c i  0.04 30 170 0   0  243  224 37% 2 165024 44357 76%
c i  0.04 30 186 0   0  268  247 38% 2 165024 44356 76%
c i  0.04 30 202 0   0  293  270 39% 2 165024 44355 76%
c i  0.04 30 218 0   0  318  293 40% 2 165024 44354 76%
c i  0.04 30 235 0   0  343  316 41% 2 165024 44353 76%
c i  0.04 30 251 0   0  368  339 41% 2 165024 44352 76%
c i  0.04 30 267 0   0  393  362 42% 2 165024 44351 76%
c i  0.05 30 283 0   0  418  385 43% 2 165024 44350 76%
c i  0.05 30 299 0   0  443  408 44% 2 165024 44349 76%
c 
c  seconds   reductions  redundant  irredundant
c         MB     restarts       trail       variables
c           level   conflicts       glue         remaining
c 
c i  0.05 30 315 0   0  468  431 45% 2 165024 44348 76%
c i  0.05 30 331 0   0  493  454 46% 2 165024 44347 76%
c i  0.05 30 347 0   0  518  477 46% 2 165024 44346 76%
c i  0.05 30 363 0   0  543  500 47% 2 165024 44345 76%
c i  0.05 30 379 0   0  568  523 48% 2 165024 44344 76%
c i  0.05 30 395 0   0  593  546 49% 2 165024 44343 76%
c i  0.05 30 411 0   0  618  569 50% 2 165024 44342 76%
c i  0.05 30 427 0   0  643  592 50% 2 165024 44341 76%
c i  0.05 30 443 0   0  668  615 51% 2 165024 44340 76%
c i  0.05 30 459 0   0  693  638 52% 2 165024 44339 76%
c i  0.05 30 476 0   0  718  661 53% 2 165024 44338 76%
c i  0.05 30 492 0   0  743  684 54% 2 165024 44337 76%
c i  0.05 30 508 0   0  768  707 55% 2 165024 44336 76%
c i  0.05 30 524 0   0  793  730 55% 2 165024 44335 76%
c i  0.05 30 540 0   0  818  753 56% 2 165024 44334 76%
c i  0.05 30 556 0   0  843  776 57% 2 165024 44333 76%
c i  0.06 30 572 0   0  868  799 58% 2 165024 44332 76%
c i  0.06 30 588 0   0  893  822 59% 2 165024 44331 76%
c i  0.06 30 604 0   0  918  845 59% 2 165024 44330 76%
c i  0.06 30 620 0   0  943  868 60% 2 165024 44329 76%
c 
c  seconds   reductions  redundant  irredundant
c         MB     restarts       trail       variables
c           level   conflicts       glue         remaining
c 
c i  0.06 30 636 0   0  968  891 61% 2 165024 44328 76%
c i  0.06 30 652 0   0  993  914 62% 2 165024 44327 76%
c }  0.06 30 657 0   0 1000  921 62% 2 165024 44327 76%
c [  0.06 30  0 0   0 1000  921  0% 0 165024 44327 76%
c i  0.07 30 695 0   0 1367  961 65% 10 165024 44026 76%
c O  0.07 30 687 0   0 1368  962 65% 10 165024 44026 76%
c i  0.08 30 406 0   0 1531 1056 72% 22 165024 44010 76%
c i  0.09 30 339 0   0 1595 1098 74% 22 165024 43888 76%
c i  0.09 31 316 0   0 1621 1109 74% 22 165024 43870 76%
c i  0.09 31 315 0   0 1622 1109 74% 22 165024 43854 75%
c i  0.10 31 310 0   0 1627 1110 74% 22 165024 43827 75%
c i  0.10 31 297 0   0 1644 1118 74% 22 165024 43800 75%
c i  0.10 31 295 0   0 1647 1120 74% 22 165024 43791 75%
c i  0.10 31 290 0   0 1654 1122 74% 21 165024 43782 75%
c i  0.10 31 287 0   0 1658 1125 74% 21 165024 43773 75%
c i  0.10 31 284 0   0 1662 1128 73% 21 165024 43764 75%
c i  0.10 31 282 0   0 1665 1130 73% 21 165024 43755 75%
c i  0.10 31 277 0   0 1672 1133 73% 21 165024 43746 75%
c i  0.11 31 267 0   0 1688 1143 73% 21 165024 43719 75%
c i  0.11 31 258 0   0 1704 1153 72% 20 165024 43710 75%
c 
c  seconds   reductions  redundant   irredundant
c         MB     restarts       trail        variables
c           level   conflicts       glue          remaining
c 
c i  0.11 31 257 0   0 1705 1153 72% 20 165024 43709 75%
c i  0.11 31 256 0   0 1706 1153 72% 20 165024 43708 75%
c i  0.11 31 255 0   0 1708 1153 72% 20 165024 43707 75%
c i  0.11 31 255 0   0 1709 1153 72% 20 165024 43706 75%
c i  0.11 31 254 0   0 1710 1153 72% 20 165024 43681 75%
c i  0.11 31 251 0   0 1716 1154 72% 20 165024 43593 75%
c i  0.11 31 250 0   0 1717 1154 72% 20 165024 43553 75%
c i  0.11 31 248 0   0 1720 1156 72% 20 165024 43531 75%
c i  0.11 31 236 0   0 1744 1161 71% 19 165024 43495 75%
c i  0.11 31 235 0   0 1746 1162 71% 19 165024 43487 75%
c i  0.11 31 234 0   0 1749 1164 71% 19 165024 43478 75%
c i  0.11 31 232 0   0 1753 1166 71% 19 165024 43470 75%
c i  0.11 31 230 0   0 1758 1168 71% 19 165024 43437 75%
c i  0.11 31 228 0   0 1762 1170 70% 19 165024 43429 75%
c i  0.11 31 227 0   0 1765 1172 70% 19 165024 43411 75%
c i  0.11 31 225 0   0 1768 1173 70% 19 165024 43395 75%
c i  0.11 31 223 0   0 1772 1175 70% 19 165024 43361 75%
c i  0.11 31 219 0   0 1783 1179 69% 18 165024 43343 75%
c i  0.11 31 218 0   0 1785 1180 69% 18 165024 43335 75%
c i  0.11 31 216 0   0 1790 1182 69% 18 165024 43293 75%
c 
c  seconds   reductions  redundant   irredundant
c         MB     restarts       trail        variables
c           level   conflicts       glue          remaining
c 
c i  0.11 31 215 0   0 1792 1182 69% 18 165024 43276 74%
c ]  0.11 31 210 0   0 1804 1182 68% 18 165024 43127 74%
c 0  0.11 31 210 0   0 1804 1182 68% 18 165024 43127 74%
c 
c --- [ result ] -------------------------------------------------------------
c 
s UNSATISFIABLE
c 
c --- [ run-time profiling ] -------------------------------------------------
c 
c process time taken by individual solving procedures
c (percentage relative to process time for solving)
c 
c         0.08   99.85% search
c         0.05   67.26% stable
c         0.03   41.49% parse
c         0.02   29.37% unstable
c         0.00    3.19% lucky
c         0.00    0.00% simplify
c   =================================
c         0.08   70.29% solve
c 
c last line shows process time for solving
c (percentage relative to total process time)
c 
c --- [ statistics ] ---------------------------------------------------------
c 
c chronological:               418        23.17 %  of conflicts
c conflicts:                  1804     22701.53    per second
c decisions:                  4024     50638.01    per second
c fixed:                     14972        25.77 %  of all variables
c learned:                    1442        79.93 %  per conflict
c learned_lits:              22328       100.00 %  learned literals
c minimized:                     0         0.00 %  learned literals
c shrunken:                   8090        36.23 %  learned literals
c minishrunken:                303         1.36 %  learned literals
c otfs:                         89         4.93 %  of conflict
c propagations:            1069559        13.46 M  per second
c rephased:                      1      1804.00    interval
c stabilizing:                   1        44.07 %  of conflicts
c subsumed:                    138         0.08 %  of all clauses
c strengthened:                 80         0.05 %  of all clauses
c 
c seconds are measured in process time for solving
c 
c --- [ resources ] ----------------------------------------------------------
c 
c total process time since initialization:         0.11    seconds
c total real time since initialization:            0.12    seconds
c maximum resident set size of process:           29.30    MB
c 
c --- [ shutting down ] ------------------------------------------------------
c 
c exit 20
